%%%mzn-stat: initTime=0.003388232
%%%mzn-stat: objective=583
%%%mzn-stat: nodes=10472
%%%mzn-stat: restarts=0
%%%mzn-stat: peakDepth=129
%%%mzn-stat: solveTime=0.654254793
%%%mzn-stat: variables=293
%%%mzn-stat: propagators=383
%%%mzn-stat: failures=8159
%%%mzn-stat: propagations=794971
%%%mzn-stat: nogoods=8159
%%%mzn-stat: AverageConflictSize=7.35666135555828
%%%mzn-stat: NumUnitNogoodsLearned=582
%%%mzn-stat: AverageLearnedNogoodLength=16.866772888834415
%%%mzn-stat: AverageBacktrackAmount=0
%%%mzn-stat: AverageLbd=8.317931119009682
%%%mzn-stat-end
maxleg = 583;
succ = array1d(1..20,[9, 1, 14, 3, 19, 17, 10, 2, 11, 6, 20, 16, 7, 8, 5, 4, 15, 13, 12, 18]);
% time elapsed: 0.84 s
----------
==========
% time elapsed: 0.84 s
%%%mzn-stat: initTime=0.003388232
%%%mzn-stat: objective=583
%%%mzn-stat: nodes=10472
%%%mzn-stat: restarts=0
%%%mzn-stat: peakDepth=129
%%%mzn-stat: solveTime=0.654259402
%%%mzn-stat: variables=293
%%%mzn-stat: propagators=383
%%%mzn-stat: failures=8159
%%%mzn-stat: propagations=794971
%%%mzn-stat: nogoods=8159
%%%mzn-stat: AverageConflictSize=7.35666135555828
%%%mzn-stat: NumUnitNogoodsLearned=582
%%%mzn-stat: AverageLearnedNogoodLength=16.866772888834415
%%%mzn-stat: AverageBacktrackAmount=0
%%%mzn-stat: AverageLbd=8.317931119009682
%%%mzn-stat-end
